
;this file is automatically generated: Wed Feb 26 14:38:42 CST 2020

;declarations generated

(declare-fun oclExcludes ( Int Int) Bool)
(declare-fun Cardinality ( Int) Int)
(declare-fun oclSelect ( Int Bool) Int)
(declare-fun obj_c512293e_aaa0_4ed2_9c10_acb3cc872cdc ( Int) Int)
(declare-fun type_b2a924d2_08e2_46d6_9468_4f8a7ac22824_Class18 ( Int) Bool)
(declare-fun Enum0 ( Int) Int)
(declare-fun Enum1 ( Int) Int)
(declare-fun container_ ( Int) Int)
(declare-fun oclIncludes ( Int Int) Bool)
(declare-fun ObjAt ( Int Int) Int)

;formula(s) generated
(assert (forall ((p Int)) (=> ( type_b2a924d2_08e2_46d6_9468_4f8a7ac22824_Class18 p )  (and (>= ( Enum0 ( obj_c512293e_aaa0_4ed2_9c10_acb3cc872cdc p )  )  0) (<= ( Enum0 ( obj_c512293e_aaa0_4ed2_9c10_acb3cc872cdc p )  )  3)))))
(assert (! (forall ((v Int)) (=> ( type_b2a924d2_08e2_46d6_9468_4f8a7ac22824_Class18 v )  (not (= ( Enum0 ( obj_c512293e_aaa0_4ed2_9c10_acb3cc872cdc v )  )  3) ))):named l0))
(assert (exists ((o Int)) ( type_b2a924d2_08e2_46d6_9468_4f8a7ac22824_Class18 ( obj_c512293e_aaa0_4ed2_9c10_acb3cc872cdc o )  ) ))

 ;end of formula 